
(set-option :produce-models true)
(set-option :inline-size-limit 10000)

(declare-const var0 String)

(push 1)
(assert (str.in.re var0 (re.* (re.range "\x01" "\xff"))))
(assert (str.in.re var0 (re.++ (re.++ re.begin-anchor (re.++ ((_ re.capture 1) (re.union (re.union (re.union (re.union (re.++ (str.to.re "0") (re.++ (str.to.re "0") (re.range "1" "9"))) (re.++ (str.to.re "0") (re.++ (re.range "1" "9") (re.range "0" "9")))) (re.++ (re.range "1" "7") (re.++ (re.range "0" "9") (re.range "0" "9")))) (re.++ (str.to.re "7") (re.++ (re.range "0" "7") (re.range "0" "2")))) (re.++ (str.to.re "7") (re.++ (str.to.re "7") (re.range "0" "2"))))) (re.++ ((_ re.capture 2) ((_ re.loop 0 6) (re.range "0" "9"))) ((_ re.capture 3) (re.union (re.union (re.union (re.union (re.union (re.union (re.union (re.union (re.union (re.union (str.to.re "A") (re.++ (str.to.re "B") ((_ re.capture 4) (re.union (re.opt (re.range "1" "9")) (re.union (str.to.re "A") (re.union (str.to.re "D") (re.union (str.to.re "G") (re.union (str.to.re "H") (re.union (str.to.re "J") (re.union (str.to.re "K") (re.union (str.to.re "L") (re.union (str.to.re "N") (re.union (str.to.re "P") (re.union (str.to.re "Q") (re.union (str.to.re "R") (re.union (str.to.re "T") (re.union (str.to.re "W") (str.to.re "Y")))))))))))))))))) (re.++ (str.to.re "C") ((_ re.capture 5) (re.union (re.range "1" "9") (re.range "A" "Z"))))) (re.++ (str.to.re "D") ((_ re.capture 6) (re.union (re.opt (re.range "1" "9")) (re.union (str.to.re "A") (re.union (str.to.re "C") (re.union (str.to.re "D") (re.union (str.to.re "G") (re.union (str.to.re "H") (re.union (str.to.re "J") (re.union (str.to.re "K") (re.union (str.to.re "L") (re.union (str.to.re "M") (re.union (str.to.re "N") (re.union (str.to.re "P") (re.union (str.to.re "Q") (re.union (str.to.re "R") (re.union (str.to.re "S") (re.union (str.to.re "T") (re.union (str.to.re "V") (re.union (str.to.re "W") (re.union (str.to.re "X") (re.union (str.to.re "Y") (str.to.re "Z")))))))))))))))))))))))) (re.++ (str.to.re "E") ((_ re.capture 7) (re.union (re.opt (re.range "1" "9")) (re.union (str.to.re "A") (re.union (str.to.re "B") (re.union (str.to.re "C") (re.union (str.to.re "D") (re.union (str.to.re "F") (re.union (str.to.re "G") (re.union (str.to.re "H") (re.union (str.to.re "J") (re.union (str.to.re "K") (str.to.re "M")))))))))))))) (re.++ (str.to.re "F") ((_ re.capture 8) (re.range "1" "8")))) (re.++ (str.to.re "J") ((_ re.capture 9) (re.range "1" "4")))) (re.++ (str.to.re "K") ((_ re.capture 10) (re.union (re.range "1" "9") (re.union (str.to.re "A") (re.union (str.to.re "B") (re.union (str.to.re "C") (re.union (str.to.re "D") (re.union (str.to.re "E") (re.union (str.to.re "F") (re.union (str.to.re "G") (re.union (str.to.re "H") (re.union (str.to.re "J") (re.union (str.to.re "L") (str.to.re "M"))))))))))))))) (re.++ (str.to.re "T") ((_ re.capture 11) (re.opt (re.union (str.to.re "A") (re.union (str.to.re "B") (re.union (str.to.re "C") (re.union (str.to.re "D") (re.union (str.to.re "E") (re.union (str.to.re "F") (re.union (str.to.re "G") (re.union (str.to.re "H") (re.union (str.to.re "J") (re.union (str.to.re "K") (re.union (str.to.re "L") (re.union (str.to.re "M") (re.union (str.to.re "N") (re.union (str.to.re "P") (re.union (str.to.re "Q") (re.union (str.to.re "R") (re.union (str.to.re "S") (re.union (str.to.re "T") (re.union (str.to.re "U") (re.union (str.to.re "V") (re.union (str.to.re "W") (re.union (str.to.re "X") (re.union (str.to.re "Y") (re.union (str.to.re "Z") (str.to.re "2"))))))))))))))))))))))))))))) (str.to.re "M")) (re.++ (str.to.re "W") ((_ re.capture 12) (re.union (re.opt (re.range "1" "9")) (re.union (str.to.re "B") (re.union (str.to.re "C") (re.union (str.to.re "F") (re.union (str.to.re "G") (re.union (str.to.re "J") (re.union (str.to.re "R") (str.to.re "T"))))))))))))))) re.end-anchor)))	; match!==null
(assert (not (str.in.re ((_ str.extract 1) var0 (re.++ (re.++ re.begin-anchor (re.++ ((_ re.capture 1) (re.union (re.union (re.union (re.union (re.++ (str.to.re "0") (re.++ (str.to.re "0") (re.range "1" "9"))) (re.++ (str.to.re "0") (re.++ (re.range "1" "9") (re.range "0" "9")))) (re.++ (re.range "1" "7") (re.++ (re.range "0" "9") (re.range "0" "9")))) (re.++ (str.to.re "7") (re.++ (re.range "0" "7") (re.range "0" "2")))) (re.++ (str.to.re "7") (re.++ (str.to.re "7") (re.range "0" "2"))))) (re.++ ((_ re.capture 2) ((_ re.loop 0 6) (re.range "0" "9"))) ((_ re.capture 3) (re.union (re.union (re.union (re.union (re.union (re.union (re.union (re.union (re.union (re.union (str.to.re "A") (re.++ (str.to.re "B") ((_ re.capture 4) (re.union (re.opt (re.range "1" "9")) (re.union (str.to.re "A") (re.union (str.to.re "D") (re.union (str.to.re "G") (re.union (str.to.re "H") (re.union (str.to.re "J") (re.union (str.to.re "K") (re.union (str.to.re "L") (re.union (str.to.re "N") (re.union (str.to.re "P") (re.union (str.to.re "Q") (re.union (str.to.re "R") (re.union (str.to.re "T") (re.union (str.to.re "W") (str.to.re "Y")))))))))))))))))) (re.++ (str.to.re "C") ((_ re.capture 5) (re.union (re.range "1" "9") (re.range "A" "Z"))))) (re.++ (str.to.re "D") ((_ re.capture 6) (re.union (re.opt (re.range "1" "9")) (re.union (str.to.re "A") (re.union (str.to.re "C") (re.union (str.to.re "D") (re.union (str.to.re "G") (re.union (str.to.re "H") (re.union (str.to.re "J") (re.union (str.to.re "K") (re.union (str.to.re "L") (re.union (str.to.re "M") (re.union (str.to.re "N") (re.union (str.to.re "P") (re.union (str.to.re "Q") (re.union (str.to.re "R") (re.union (str.to.re "S") (re.union (str.to.re "T") (re.union (str.to.re "V") (re.union (str.to.re "W") (re.union (str.to.re "X") (re.union (str.to.re "Y") (str.to.re "Z")))))))))))))))))))))))) (re.++ (str.to.re "E") ((_ re.capture 7) (re.union (re.opt (re.range "1" "9")) (re.union (str.to.re "A") (re.union (str.to.re "B") (re.union (str.to.re "C") (re.union (str.to.re "D") (re.union (str.to.re "F") (re.union (str.to.re "G") (re.union (str.to.re "H") (re.union (str.to.re "J") (re.union (str.to.re "K") (str.to.re "M")))))))))))))) (re.++ (str.to.re "F") ((_ re.capture 8) (re.range "1" "8")))) (re.++ (str.to.re "J") ((_ re.capture 9) (re.range "1" "4")))) (re.++ (str.to.re "K") ((_ re.capture 10) (re.union (re.range "1" "9") (re.union (str.to.re "A") (re.union (str.to.re "B") (re.union (str.to.re "C") (re.union (str.to.re "D") (re.union (str.to.re "E") (re.union (str.to.re "F") (re.union (str.to.re "G") (re.union (str.to.re "H") (re.union (str.to.re "J") (re.union (str.to.re "L") (str.to.re "M"))))))))))))))) (re.++ (str.to.re "T") ((_ re.capture 11) (re.opt (re.union (str.to.re "A") (re.union (str.to.re "B") (re.union (str.to.re "C") (re.union (str.to.re "D") (re.union (str.to.re "E") (re.union (str.to.re "F") (re.union (str.to.re "G") (re.union (str.to.re "H") (re.union (str.to.re "J") (re.union (str.to.re "K") (re.union (str.to.re "L") (re.union (str.to.re "M") (re.union (str.to.re "N") (re.union (str.to.re "P") (re.union (str.to.re "Q") (re.union (str.to.re "R") (re.union (str.to.re "S") (re.union (str.to.re "T") (re.union (str.to.re "U") (re.union (str.to.re "V") (re.union (str.to.re "W") (re.union (str.to.re "X") (re.union (str.to.re "Y") (re.union (str.to.re "Z") (str.to.re "2"))))))))))))))))))))))))))))) (str.to.re "M")) (re.++ (str.to.re "W") ((_ re.capture 12) (re.union (re.opt (re.range "1" "9")) (re.union (str.to.re "B") (re.union (str.to.re "C") (re.union (str.to.re "F") (re.union (str.to.re "G") (re.union (str.to.re "J") (re.union (str.to.re "R") (str.to.re "T"))))))))))))))) re.end-anchor)) (str.to.re "\x00"))))
;match[1]!==null
(assert (str.in.re ((_ str.extract 1) var0 (re.++ (re.++ re.begin-anchor (re.++ ((_ re.capture 1) (re.union (re.union (re.union (re.union (re.++ (str.to.re "0") (re.++ (str.to.re "0") (re.range "1" "9"))) (re.++ (str.to.re "0") (re.++ (re.range "1" "9") (re.range "0" "9")))) (re.++ (re.range "1" "7") (re.++ (re.range "0" "9") (re.range "0" "9")))) (re.++ (str.to.re "7") (re.++ (re.range "0" "7") (re.range "0" "2")))) (re.++ (str.to.re "7") (re.++ (str.to.re "7") (re.range "0" "2"))))) (re.++ ((_ re.capture 2) ((_ re.loop 0 6) (re.range "0" "9"))) ((_ re.capture 3) (re.union (re.union (re.union (re.union (re.union (re.union (re.union (re.union (re.union (re.union (str.to.re "A") (re.++ (str.to.re "B") ((_ re.capture 4) (re.union (re.opt (re.range "1" "9")) (re.union (str.to.re "A") (re.union (str.to.re "D") (re.union (str.to.re "G") (re.union (str.to.re "H") (re.union (str.to.re "J") (re.union (str.to.re "K") (re.union (str.to.re "L") (re.union (str.to.re "N") (re.union (str.to.re "P") (re.union (str.to.re "Q") (re.union (str.to.re "R") (re.union (str.to.re "T") (re.union (str.to.re "W") (str.to.re "Y")))))))))))))))))) (re.++ (str.to.re "C") ((_ re.capture 5) (re.union (re.range "1" "9") (re.range "A" "Z"))))) (re.++ (str.to.re "D") ((_ re.capture 6) (re.union (re.opt (re.range "1" "9")) (re.union (str.to.re "A") (re.union (str.to.re "C") (re.union (str.to.re "D") (re.union (str.to.re "G") (re.union (str.to.re "H") (re.union (str.to.re "J") (re.union (str.to.re "K") (re.union (str.to.re "L") (re.union (str.to.re "M") (re.union (str.to.re "N") (re.union (str.to.re "P") (re.union (str.to.re "Q") (re.union (str.to.re "R") (re.union (str.to.re "S") (re.union (str.to.re "T") (re.union (str.to.re "V") (re.union (str.to.re "W") (re.union (str.to.re "X") (re.union (str.to.re "Y") (str.to.re "Z")))))))))))))))))))))))) (re.++ (str.to.re "E") ((_ re.capture 7) (re.union (re.opt (re.range "1" "9")) (re.union (str.to.re "A") (re.union (str.to.re "B") (re.union (str.to.re "C") (re.union (str.to.re "D") (re.union (str.to.re "F") (re.union (str.to.re "G") (re.union (str.to.re "H") (re.union (str.to.re "J") (re.union (str.to.re "K") (str.to.re "M")))))))))))))) (re.++ (str.to.re "F") ((_ re.capture 8) (re.range "1" "8")))) (re.++ (str.to.re "J") ((_ re.capture 9) (re.range "1" "4")))) (re.++ (str.to.re "K") ((_ re.capture 10) (re.union (re.range "1" "9") (re.union (str.to.re "A") (re.union (str.to.re "B") (re.union (str.to.re "C") (re.union (str.to.re "D") (re.union (str.to.re "E") (re.union (str.to.re "F") (re.union (str.to.re "G") (re.union (str.to.re "H") (re.union (str.to.re "J") (re.union (str.to.re "L") (str.to.re "M"))))))))))))))) (re.++ (str.to.re "T") ((_ re.capture 11) (re.opt (re.union (str.to.re "A") (re.union (str.to.re "B") (re.union (str.to.re "C") (re.union (str.to.re "D") (re.union (str.to.re "E") (re.union (str.to.re "F") (re.union (str.to.re "G") (re.union (str.to.re "H") (re.union (str.to.re "J") (re.union (str.to.re "K") (re.union (str.to.re "L") (re.union (str.to.re "M") (re.union (str.to.re "N") (re.union (str.to.re "P") (re.union (str.to.re "Q") (re.union (str.to.re "R") (re.union (str.to.re "S") (re.union (str.to.re "T") (re.union (str.to.re "U") (re.union (str.to.re "V") (re.union (str.to.re "W") (re.union (str.to.re "X") (re.union (str.to.re "Y") (re.union (str.to.re "Z") (str.to.re "2"))))))))))))))))))))))))))))) (str.to.re "M")) (re.++ (str.to.re "W") ((_ re.capture 12) (re.union (re.opt (re.range "1" "9")) (re.union (str.to.re "B") (re.union (str.to.re "C") (re.union (str.to.re "F") (re.union (str.to.re "G") (re.union (str.to.re "J") (re.union (str.to.re "R") (str.to.re "T"))))))))))))))) re.end-anchor)) (re.++ re.all(re.+ (re.range "a" "z")) re.all) ))
;/[a-z]+/.test(match[1]) == true
(check-sat)
(get-model)
(pop 1)
(push 1)
(assert (str.in.re var0 (re.* (re.range "\x01" "\xff"))))
(assert (str.in.re var0 (re.++ (re.++ re.begin-anchor (re.++ ((_ re.capture 1) (re.union (re.union (re.union (re.union (re.++ (str.to.re "0") (re.++ (str.to.re "0") (re.range "1" "9"))) (re.++ (str.to.re "0") (re.++ (re.range "1" "9") (re.range "0" "9")))) (re.++ (re.range "1" "7") (re.++ (re.range "0" "9") (re.range "0" "9")))) (re.++ (str.to.re "7") (re.++ (re.range "0" "7") (re.range "0" "2")))) (re.++ (str.to.re "7") (re.++ (str.to.re "7") (re.range "0" "2"))))) (re.++ ((_ re.capture 2) ((_ re.loop 0 6) (re.range "0" "9"))) ((_ re.capture 3) (re.union (re.union (re.union (re.union (re.union (re.union (re.union (re.union (re.union (re.union (str.to.re "A") (re.++ (str.to.re "B") ((_ re.capture 4) (re.union (re.opt (re.range "1" "9")) (re.union (str.to.re "A") (re.union (str.to.re "D") (re.union (str.to.re "G") (re.union (str.to.re "H") (re.union (str.to.re "J") (re.union (str.to.re "K") (re.union (str.to.re "L") (re.union (str.to.re "N") (re.union (str.to.re "P") (re.union (str.to.re "Q") (re.union (str.to.re "R") (re.union (str.to.re "T") (re.union (str.to.re "W") (str.to.re "Y")))))))))))))))))) (re.++ (str.to.re "C") ((_ re.capture 5) (re.union (re.range "1" "9") (re.range "A" "Z"))))) (re.++ (str.to.re "D") ((_ re.capture 6) (re.union (re.opt (re.range "1" "9")) (re.union (str.to.re "A") (re.union (str.to.re "C") (re.union (str.to.re "D") (re.union (str.to.re "G") (re.union (str.to.re "H") (re.union (str.to.re "J") (re.union (str.to.re "K") (re.union (str.to.re "L") (re.union (str.to.re "M") (re.union (str.to.re "N") (re.union (str.to.re "P") (re.union (str.to.re "Q") (re.union (str.to.re "R") (re.union (str.to.re "S") (re.union (str.to.re "T") (re.union (str.to.re "V") (re.union (str.to.re "W") (re.union (str.to.re "X") (re.union (str.to.re "Y") (str.to.re "Z")))))))))))))))))))))))) (re.++ (str.to.re "E") ((_ re.capture 7) (re.union (re.opt (re.range "1" "9")) (re.union (str.to.re "A") (re.union (str.to.re "B") (re.union (str.to.re "C") (re.union (str.to.re "D") (re.union (str.to.re "F") (re.union (str.to.re "G") (re.union (str.to.re "H") (re.union (str.to.re "J") (re.union (str.to.re "K") (str.to.re "M")))))))))))))) (re.++ (str.to.re "F") ((_ re.capture 8) (re.range "1" "8")))) (re.++ (str.to.re "J") ((_ re.capture 9) (re.range "1" "4")))) (re.++ (str.to.re "K") ((_ re.capture 10) (re.union (re.range "1" "9") (re.union (str.to.re "A") (re.union (str.to.re "B") (re.union (str.to.re "C") (re.union (str.to.re "D") (re.union (str.to.re "E") (re.union (str.to.re "F") (re.union (str.to.re "G") (re.union (str.to.re "H") (re.union (str.to.re "J") (re.union (str.to.re "L") (str.to.re "M"))))))))))))))) (re.++ (str.to.re "T") ((_ re.capture 11) (re.opt (re.union (str.to.re "A") (re.union (str.to.re "B") (re.union (str.to.re "C") (re.union (str.to.re "D") (re.union (str.to.re "E") (re.union (str.to.re "F") (re.union (str.to.re "G") (re.union (str.to.re "H") (re.union (str.to.re "J") (re.union (str.to.re "K") (re.union (str.to.re "L") (re.union (str.to.re "M") (re.union (str.to.re "N") (re.union (str.to.re "P") (re.union (str.to.re "Q") (re.union (str.to.re "R") (re.union (str.to.re "S") (re.union (str.to.re "T") (re.union (str.to.re "U") (re.union (str.to.re "V") (re.union (str.to.re "W") (re.union (str.to.re "X") (re.union (str.to.re "Y") (re.union (str.to.re "Z") (str.to.re "2"))))))))))))))))))))))))))))) (str.to.re "M")) (re.++ (str.to.re "W") ((_ re.capture 12) (re.union (re.opt (re.range "1" "9")) (re.union (str.to.re "B") (re.union (str.to.re "C") (re.union (str.to.re "F") (re.union (str.to.re "G") (re.union (str.to.re "J") (re.union (str.to.re "R") (str.to.re "T"))))))))))))))) re.end-anchor)))	; match!==null
(assert (not (str.in.re ((_ str.extract 1) var0 (re.++ (re.++ re.begin-anchor (re.++ ((_ re.capture 1) (re.union (re.union (re.union (re.union (re.++ (str.to.re "0") (re.++ (str.to.re "0") (re.range "1" "9"))) (re.++ (str.to.re "0") (re.++ (re.range "1" "9") (re.range "0" "9")))) (re.++ (re.range "1" "7") (re.++ (re.range "0" "9") (re.range "0" "9")))) (re.++ (str.to.re "7") (re.++ (re.range "0" "7") (re.range "0" "2")))) (re.++ (str.to.re "7") (re.++ (str.to.re "7") (re.range "0" "2"))))) (re.++ ((_ re.capture 2) ((_ re.loop 0 6) (re.range "0" "9"))) ((_ re.capture 3) (re.union (re.union (re.union (re.union (re.union (re.union (re.union (re.union (re.union (re.union (str.to.re "A") (re.++ (str.to.re "B") ((_ re.capture 4) (re.union (re.opt (re.range "1" "9")) (re.union (str.to.re "A") (re.union (str.to.re "D") (re.union (str.to.re "G") (re.union (str.to.re "H") (re.union (str.to.re "J") (re.union (str.to.re "K") (re.union (str.to.re "L") (re.union (str.to.re "N") (re.union (str.to.re "P") (re.union (str.to.re "Q") (re.union (str.to.re "R") (re.union (str.to.re "T") (re.union (str.to.re "W") (str.to.re "Y")))))))))))))))))) (re.++ (str.to.re "C") ((_ re.capture 5) (re.union (re.range "1" "9") (re.range "A" "Z"))))) (re.++ (str.to.re "D") ((_ re.capture 6) (re.union (re.opt (re.range "1" "9")) (re.union (str.to.re "A") (re.union (str.to.re "C") (re.union (str.to.re "D") (re.union (str.to.re "G") (re.union (str.to.re "H") (re.union (str.to.re "J") (re.union (str.to.re "K") (re.union (str.to.re "L") (re.union (str.to.re "M") (re.union (str.to.re "N") (re.union (str.to.re "P") (re.union (str.to.re "Q") (re.union (str.to.re "R") (re.union (str.to.re "S") (re.union (str.to.re "T") (re.union (str.to.re "V") (re.union (str.to.re "W") (re.union (str.to.re "X") (re.union (str.to.re "Y") (str.to.re "Z")))))))))))))))))))))))) (re.++ (str.to.re "E") ((_ re.capture 7) (re.union (re.opt (re.range "1" "9")) (re.union (str.to.re "A") (re.union (str.to.re "B") (re.union (str.to.re "C") (re.union (str.to.re "D") (re.union (str.to.re "F") (re.union (str.to.re "G") (re.union (str.to.re "H") (re.union (str.to.re "J") (re.union (str.to.re "K") (str.to.re "M")))))))))))))) (re.++ (str.to.re "F") ((_ re.capture 8) (re.range "1" "8")))) (re.++ (str.to.re "J") ((_ re.capture 9) (re.range "1" "4")))) (re.++ (str.to.re "K") ((_ re.capture 10) (re.union (re.range "1" "9") (re.union (str.to.re "A") (re.union (str.to.re "B") (re.union (str.to.re "C") (re.union (str.to.re "D") (re.union (str.to.re "E") (re.union (str.to.re "F") (re.union (str.to.re "G") (re.union (str.to.re "H") (re.union (str.to.re "J") (re.union (str.to.re "L") (str.to.re "M"))))))))))))))) (re.++ (str.to.re "T") ((_ re.capture 11) (re.opt (re.union (str.to.re "A") (re.union (str.to.re "B") (re.union (str.to.re "C") (re.union (str.to.re "D") (re.union (str.to.re "E") (re.union (str.to.re "F") (re.union (str.to.re "G") (re.union (str.to.re "H") (re.union (str.to.re "J") (re.union (str.to.re "K") (re.union (str.to.re "L") (re.union (str.to.re "M") (re.union (str.to.re "N") (re.union (str.to.re "P") (re.union (str.to.re "Q") (re.union (str.to.re "R") (re.union (str.to.re "S") (re.union (str.to.re "T") (re.union (str.to.re "U") (re.union (str.to.re "V") (re.union (str.to.re "W") (re.union (str.to.re "X") (re.union (str.to.re "Y") (re.union (str.to.re "Z") (str.to.re "2"))))))))))))))))))))))))))))) (str.to.re "M")) (re.++ (str.to.re "W") ((_ re.capture 12) (re.union (re.opt (re.range "1" "9")) (re.union (str.to.re "B") (re.union (str.to.re "C") (re.union (str.to.re "F") (re.union (str.to.re "G") (re.union (str.to.re "J") (re.union (str.to.re "R") (str.to.re "T"))))))))))))))) re.end-anchor)) (str.to.re "\x00"))))	
;match[1]!==null
(assert (not (str.in.re ((_ str.extract 1) var0 (re.++ (re.++ re.begin-anchor (re.++ ((_ re.capture 1) (re.union (re.union (re.union (re.union (re.++ (str.to.re "0") (re.++ (str.to.re "0") (re.range "1" "9"))) (re.++ (str.to.re "0") (re.++ (re.range "1" "9") (re.range "0" "9")))) (re.++ (re.range "1" "7") (re.++ (re.range "0" "9") (re.range "0" "9")))) (re.++ (str.to.re "7") (re.++ (re.range "0" "7") (re.range "0" "2")))) (re.++ (str.to.re "7") (re.++ (str.to.re "7") (re.range "0" "2"))))) (re.++ ((_ re.capture 2) ((_ re.loop 0 6) (re.range "0" "9"))) ((_ re.capture 3) (re.union (re.union (re.union (re.union (re.union (re.union (re.union (re.union (re.union (re.union (str.to.re "A") (re.++ (str.to.re "B") ((_ re.capture 4) (re.union (re.opt (re.range "1" "9")) (re.union (str.to.re "A") (re.union (str.to.re "D") (re.union (str.to.re "G") (re.union (str.to.re "H") (re.union (str.to.re "J") (re.union (str.to.re "K") (re.union (str.to.re "L") (re.union (str.to.re "N") (re.union (str.to.re "P") (re.union (str.to.re "Q") (re.union (str.to.re "R") (re.union (str.to.re "T") (re.union (str.to.re "W") (str.to.re "Y")))))))))))))))))) (re.++ (str.to.re "C") ((_ re.capture 5) (re.union (re.range "1" "9") (re.range "A" "Z"))))) (re.++ (str.to.re "D") ((_ re.capture 6) (re.union (re.opt (re.range "1" "9")) (re.union (str.to.re "A") (re.union (str.to.re "C") (re.union (str.to.re "D") (re.union (str.to.re "G") (re.union (str.to.re "H") (re.union (str.to.re "J") (re.union (str.to.re "K") (re.union (str.to.re "L") (re.union (str.to.re "M") (re.union (str.to.re "N") (re.union (str.to.re "P") (re.union (str.to.re "Q") (re.union (str.to.re "R") (re.union (str.to.re "S") (re.union (str.to.re "T") (re.union (str.to.re "V") (re.union (str.to.re "W") (re.union (str.to.re "X") (re.union (str.to.re "Y") (str.to.re "Z")))))))))))))))))))))))) (re.++ (str.to.re "E") ((_ re.capture 7) (re.union (re.opt (re.range "1" "9")) (re.union (str.to.re "A") (re.union (str.to.re "B") (re.union (str.to.re "C") (re.union (str.to.re "D") (re.union (str.to.re "F") (re.union (str.to.re "G") (re.union (str.to.re "H") (re.union (str.to.re "J") (re.union (str.to.re "K") (str.to.re "M")))))))))))))) (re.++ (str.to.re "F") ((_ re.capture 8) (re.range "1" "8")))) (re.++ (str.to.re "J") ((_ re.capture 9) (re.range "1" "4")))) (re.++ (str.to.re "K") ((_ re.capture 10) (re.union (re.range "1" "9") (re.union (str.to.re "A") (re.union (str.to.re "B") (re.union (str.to.re "C") (re.union (str.to.re "D") (re.union (str.to.re "E") (re.union (str.to.re "F") (re.union (str.to.re "G") (re.union (str.to.re "H") (re.union (str.to.re "J") (re.union (str.to.re "L") (str.to.re "M"))))))))))))))) (re.++ (str.to.re "T") ((_ re.capture 11) (re.opt (re.union (str.to.re "A") (re.union (str.to.re "B") (re.union (str.to.re "C") (re.union (str.to.re "D") (re.union (str.to.re "E") (re.union (str.to.re "F") (re.union (str.to.re "G") (re.union (str.to.re "H") (re.union (str.to.re "J") (re.union (str.to.re "K") (re.union (str.to.re "L") (re.union (str.to.re "M") (re.union (str.to.re "N") (re.union (str.to.re "P") (re.union (str.to.re "Q") (re.union (str.to.re "R") (re.union (str.to.re "S") (re.union (str.to.re "T") (re.union (str.to.re "U") (re.union (str.to.re "V") (re.union (str.to.re "W") (re.union (str.to.re "X") (re.union (str.to.re "Y") (re.union (str.to.re "Z") (str.to.re "2"))))))))))))))))))))))))))))) (str.to.re "M")) (re.++ (str.to.re "W") ((_ re.capture 12) (re.union (re.opt (re.range "1" "9")) (re.union (str.to.re "B") (re.union (str.to.re "C") (re.union (str.to.re "F") (re.union (str.to.re "G") (re.union (str.to.re "J") (re.union (str.to.re "R") (str.to.re "T"))))))))))))))) re.end-anchor)) (re.++ re.all(re.+ (re.range "a" "z")) re.all) )))
;/[a-z]+/.test(match[1]) == false	
(check-sat)
(get-model)
(pop 1)
(push 1)
(assert (str.in.re var0 (re.* (re.range "\x01" "\xff"))))
(assert (str.in.re var0 (re.++ (re.++ re.begin-anchor (re.++ ((_ re.capture 1) (re.union (re.union (re.union (re.union (re.++ (str.to.re "0") (re.++ (str.to.re "0") (re.range "1" "9"))) (re.++ (str.to.re "0") (re.++ (re.range "1" "9") (re.range "0" "9")))) (re.++ (re.range "1" "7") (re.++ (re.range "0" "9") (re.range "0" "9")))) (re.++ (str.to.re "7") (re.++ (re.range "0" "7") (re.range "0" "2")))) (re.++ (str.to.re "7") (re.++ (str.to.re "7") (re.range "0" "2"))))) (re.++ ((_ re.capture 2) ((_ re.loop 0 6) (re.range "0" "9"))) ((_ re.capture 3) (re.union (re.union (re.union (re.union (re.union (re.union (re.union (re.union (re.union (re.union (str.to.re "A") (re.++ (str.to.re "B") ((_ re.capture 4) (re.union (re.opt (re.range "1" "9")) (re.union (str.to.re "A") (re.union (str.to.re "D") (re.union (str.to.re "G") (re.union (str.to.re "H") (re.union (str.to.re "J") (re.union (str.to.re "K") (re.union (str.to.re "L") (re.union (str.to.re "N") (re.union (str.to.re "P") (re.union (str.to.re "Q") (re.union (str.to.re "R") (re.union (str.to.re "T") (re.union (str.to.re "W") (str.to.re "Y")))))))))))))))))) (re.++ (str.to.re "C") ((_ re.capture 5) (re.union (re.range "1" "9") (re.range "A" "Z"))))) (re.++ (str.to.re "D") ((_ re.capture 6) (re.union (re.opt (re.range "1" "9")) (re.union (str.to.re "A") (re.union (str.to.re "C") (re.union (str.to.re "D") (re.union (str.to.re "G") (re.union (str.to.re "H") (re.union (str.to.re "J") (re.union (str.to.re "K") (re.union (str.to.re "L") (re.union (str.to.re "M") (re.union (str.to.re "N") (re.union (str.to.re "P") (re.union (str.to.re "Q") (re.union (str.to.re "R") (re.union (str.to.re "S") (re.union (str.to.re "T") (re.union (str.to.re "V") (re.union (str.to.re "W") (re.union (str.to.re "X") (re.union (str.to.re "Y") (str.to.re "Z")))))))))))))))))))))))) (re.++ (str.to.re "E") ((_ re.capture 7) (re.union (re.opt (re.range "1" "9")) (re.union (str.to.re "A") (re.union (str.to.re "B") (re.union (str.to.re "C") (re.union (str.to.re "D") (re.union (str.to.re "F") (re.union (str.to.re "G") (re.union (str.to.re "H") (re.union (str.to.re "J") (re.union (str.to.re "K") (str.to.re "M")))))))))))))) (re.++ (str.to.re "F") ((_ re.capture 8) (re.range "1" "8")))) (re.++ (str.to.re "J") ((_ re.capture 9) (re.range "1" "4")))) (re.++ (str.to.re "K") ((_ re.capture 10) (re.union (re.range "1" "9") (re.union (str.to.re "A") (re.union (str.to.re "B") (re.union (str.to.re "C") (re.union (str.to.re "D") (re.union (str.to.re "E") (re.union (str.to.re "F") (re.union (str.to.re "G") (re.union (str.to.re "H") (re.union (str.to.re "J") (re.union (str.to.re "L") (str.to.re "M"))))))))))))))) (re.++ (str.to.re "T") ((_ re.capture 11) (re.opt (re.union (str.to.re "A") (re.union (str.to.re "B") (re.union (str.to.re "C") (re.union (str.to.re "D") (re.union (str.to.re "E") (re.union (str.to.re "F") (re.union (str.to.re "G") (re.union (str.to.re "H") (re.union (str.to.re "J") (re.union (str.to.re "K") (re.union (str.to.re "L") (re.union (str.to.re "M") (re.union (str.to.re "N") (re.union (str.to.re "P") (re.union (str.to.re "Q") (re.union (str.to.re "R") (re.union (str.to.re "S") (re.union (str.to.re "T") (re.union (str.to.re "U") (re.union (str.to.re "V") (re.union (str.to.re "W") (re.union (str.to.re "X") (re.union (str.to.re "Y") (re.union (str.to.re "Z") (str.to.re "2"))))))))))))))))))))))))))))) (str.to.re "M")) (re.++ (str.to.re "W") ((_ re.capture 12) (re.union (re.opt (re.range "1" "9")) (re.union (str.to.re "B") (re.union (str.to.re "C") (re.union (str.to.re "F") (re.union (str.to.re "G") (re.union (str.to.re "J") (re.union (str.to.re "R") (str.to.re "T"))))))))))))))) re.end-anchor)))	; match!==null
(assert (str.in.re ((_ str.extract 1) var0 (re.++ (re.++ re.begin-anchor (re.++ ((_ re.capture 1) (re.union (re.union (re.union (re.union (re.++ (str.to.re "0") (re.++ (str.to.re "0") (re.range "1" "9"))) (re.++ (str.to.re "0") (re.++ (re.range "1" "9") (re.range "0" "9")))) (re.++ (re.range "1" "7") (re.++ (re.range "0" "9") (re.range "0" "9")))) (re.++ (str.to.re "7") (re.++ (re.range "0" "7") (re.range "0" "2")))) (re.++ (str.to.re "7") (re.++ (str.to.re "7") (re.range "0" "2"))))) (re.++ ((_ re.capture 2) ((_ re.loop 0 6) (re.range "0" "9"))) ((_ re.capture 3) (re.union (re.union (re.union (re.union (re.union (re.union (re.union (re.union (re.union (re.union (str.to.re "A") (re.++ (str.to.re "B") ((_ re.capture 4) (re.union (re.opt (re.range "1" "9")) (re.union (str.to.re "A") (re.union (str.to.re "D") (re.union (str.to.re "G") (re.union (str.to.re "H") (re.union (str.to.re "J") (re.union (str.to.re "K") (re.union (str.to.re "L") (re.union (str.to.re "N") (re.union (str.to.re "P") (re.union (str.to.re "Q") (re.union (str.to.re "R") (re.union (str.to.re "T") (re.union (str.to.re "W") (str.to.re "Y")))))))))))))))))) (re.++ (str.to.re "C") ((_ re.capture 5) (re.union (re.range "1" "9") (re.range "A" "Z"))))) (re.++ (str.to.re "D") ((_ re.capture 6) (re.union (re.opt (re.range "1" "9")) (re.union (str.to.re "A") (re.union (str.to.re "C") (re.union (str.to.re "D") (re.union (str.to.re "G") (re.union (str.to.re "H") (re.union (str.to.re "J") (re.union (str.to.re "K") (re.union (str.to.re "L") (re.union (str.to.re "M") (re.union (str.to.re "N") (re.union (str.to.re "P") (re.union (str.to.re "Q") (re.union (str.to.re "R") (re.union (str.to.re "S") (re.union (str.to.re "T") (re.union (str.to.re "V") (re.union (str.to.re "W") (re.union (str.to.re "X") (re.union (str.to.re "Y") (str.to.re "Z")))))))))))))))))))))))) (re.++ (str.to.re "E") ((_ re.capture 7) (re.union (re.opt (re.range "1" "9")) (re.union (str.to.re "A") (re.union (str.to.re "B") (re.union (str.to.re "C") (re.union (str.to.re "D") (re.union (str.to.re "F") (re.union (str.to.re "G") (re.union (str.to.re "H") (re.union (str.to.re "J") (re.union (str.to.re "K") (str.to.re "M")))))))))))))) (re.++ (str.to.re "F") ((_ re.capture 8) (re.range "1" "8")))) (re.++ (str.to.re "J") ((_ re.capture 9) (re.range "1" "4")))) (re.++ (str.to.re "K") ((_ re.capture 10) (re.union (re.range "1" "9") (re.union (str.to.re "A") (re.union (str.to.re "B") (re.union (str.to.re "C") (re.union (str.to.re "D") (re.union (str.to.re "E") (re.union (str.to.re "F") (re.union (str.to.re "G") (re.union (str.to.re "H") (re.union (str.to.re "J") (re.union (str.to.re "L") (str.to.re "M"))))))))))))))) (re.++ (str.to.re "T") ((_ re.capture 11) (re.opt (re.union (str.to.re "A") (re.union (str.to.re "B") (re.union (str.to.re "C") (re.union (str.to.re "D") (re.union (str.to.re "E") (re.union (str.to.re "F") (re.union (str.to.re "G") (re.union (str.to.re "H") (re.union (str.to.re "J") (re.union (str.to.re "K") (re.union (str.to.re "L") (re.union (str.to.re "M") (re.union (str.to.re "N") (re.union (str.to.re "P") (re.union (str.to.re "Q") (re.union (str.to.re "R") (re.union (str.to.re "S") (re.union (str.to.re "T") (re.union (str.to.re "U") (re.union (str.to.re "V") (re.union (str.to.re "W") (re.union (str.to.re "X") (re.union (str.to.re "Y") (re.union (str.to.re "Z") (str.to.re "2"))))))))))))))))))))))))))))) (str.to.re "M")) (re.++ (str.to.re "W") ((_ re.capture 12) (re.union (re.opt (re.range "1" "9")) (re.union (str.to.re "B") (re.union (str.to.re "C") (re.union (str.to.re "F") (re.union (str.to.re "G") (re.union (str.to.re "J") (re.union (str.to.re "R") (str.to.re "T"))))))))))))))) re.end-anchor)) (str.to.re "\x00")))
;match[1]==null
(check-sat)
(get-model)
(pop 1)
(push 1)
(assert (str.in.re var0 (re.* (re.range "\x01" "\xff"))))
(assert (not (str.in.re var0 (re.++ (re.++ re.begin-anchor (re.++ ((_ re.capture 1) (re.union (re.union (re.union (re.union (re.++ (str.to.re "0") (re.++ (str.to.re "0") (re.range "1" "9"))) (re.++ (str.to.re "0") (re.++ (re.range "1" "9") (re.range "0" "9")))) (re.++ (re.range "1" "7") (re.++ (re.range "0" "9") (re.range "0" "9")))) (re.++ (str.to.re "7") (re.++ (re.range "0" "7") (re.range "0" "2")))) (re.++ (str.to.re "7") (re.++ (str.to.re "7") (re.range "0" "2"))))) (re.++ ((_ re.capture 2) ((_ re.loop 0 6) (re.range "0" "9"))) ((_ re.capture 3) (re.union (re.union (re.union (re.union (re.union (re.union (re.union (re.union (re.union (re.union (str.to.re "A") (re.++ (str.to.re "B") ((_ re.capture 4) (re.union (re.opt (re.range "1" "9")) (re.union (str.to.re "A") (re.union (str.to.re "D") (re.union (str.to.re "G") (re.union (str.to.re "H") (re.union (str.to.re "J") (re.union (str.to.re "K") (re.union (str.to.re "L") (re.union (str.to.re "N") (re.union (str.to.re "P") (re.union (str.to.re "Q") (re.union (str.to.re "R") (re.union (str.to.re "T") (re.union (str.to.re "W") (str.to.re "Y")))))))))))))))))) (re.++ (str.to.re "C") ((_ re.capture 5) (re.union (re.range "1" "9") (re.range "A" "Z"))))) (re.++ (str.to.re "D") ((_ re.capture 6) (re.union (re.opt (re.range "1" "9")) (re.union (str.to.re "A") (re.union (str.to.re "C") (re.union (str.to.re "D") (re.union (str.to.re "G") (re.union (str.to.re "H") (re.union (str.to.re "J") (re.union (str.to.re "K") (re.union (str.to.re "L") (re.union (str.to.re "M") (re.union (str.to.re "N") (re.union (str.to.re "P") (re.union (str.to.re "Q") (re.union (str.to.re "R") (re.union (str.to.re "S") (re.union (str.to.re "T") (re.union (str.to.re "V") (re.union (str.to.re "W") (re.union (str.to.re "X") (re.union (str.to.re "Y") (str.to.re "Z")))))))))))))))))))))))) (re.++ (str.to.re "E") ((_ re.capture 7) (re.union (re.opt (re.range "1" "9")) (re.union (str.to.re "A") (re.union (str.to.re "B") (re.union (str.to.re "C") (re.union (str.to.re "D") (re.union (str.to.re "F") (re.union (str.to.re "G") (re.union (str.to.re "H") (re.union (str.to.re "J") (re.union (str.to.re "K") (str.to.re "M")))))))))))))) (re.++ (str.to.re "F") ((_ re.capture 8) (re.range "1" "8")))) (re.++ (str.to.re "J") ((_ re.capture 9) (re.range "1" "4")))) (re.++ (str.to.re "K") ((_ re.capture 10) (re.union (re.range "1" "9") (re.union (str.to.re "A") (re.union (str.to.re "B") (re.union (str.to.re "C") (re.union (str.to.re "D") (re.union (str.to.re "E") (re.union (str.to.re "F") (re.union (str.to.re "G") (re.union (str.to.re "H") (re.union (str.to.re "J") (re.union (str.to.re "L") (str.to.re "M"))))))))))))))) (re.++ (str.to.re "T") ((_ re.capture 11) (re.opt (re.union (str.to.re "A") (re.union (str.to.re "B") (re.union (str.to.re "C") (re.union (str.to.re "D") (re.union (str.to.re "E") (re.union (str.to.re "F") (re.union (str.to.re "G") (re.union (str.to.re "H") (re.union (str.to.re "J") (re.union (str.to.re "K") (re.union (str.to.re "L") (re.union (str.to.re "M") (re.union (str.to.re "N") (re.union (str.to.re "P") (re.union (str.to.re "Q") (re.union (str.to.re "R") (re.union (str.to.re "S") (re.union (str.to.re "T") (re.union (str.to.re "U") (re.union (str.to.re "V") (re.union (str.to.re "W") (re.union (str.to.re "X") (re.union (str.to.re "Y") (re.union (str.to.re "Z") (str.to.re "2"))))))))))))))))))))))))))))) (str.to.re "M")) (re.++ (str.to.re "W") ((_ re.capture 12) (re.union (re.opt (re.range "1" "9")) (re.union (str.to.re "B") (re.union (str.to.re "C") (re.union (str.to.re "F") (re.union (str.to.re "G") (re.union (str.to.re "J") (re.union (str.to.re "R") (str.to.re "T"))))))))))))))) re.end-anchor))))	; match == null
(check-sat)
(get-model)
(pop 1)
(exit)
